p cnf 412 698
-41 7 -27 76 0
-41 7 -27 -76 0
53 -37 40 77 0
53 -37 40 -77 0
3 -54 -65 78 0
3 -54 -65 -78 0
14 -38 35 79 0
14 -38 35 -79 0
-43 -49 -64 80 0
-43 -49 -64 -80 0
-43 34 6 81 0
-43 34 6 -81 0
66 -9 52 82 0
66 -9 52 -82 0
43 -45 -71 83 0
43 -45 -71 -83 0
-22 61 31 84 0
-22 61 31 -84 0
-3 55 -66 85 0
-3 55 -66 -85 0
-66 -64 -18 86 0
-66 -64 -18 -86 0
-11 49 58 87 0
-11 49 58 -87 0
-4 47 -69 88 0
-4 47 -69 -88 0
68 25 26 89 0
68 25 26 -89 0
40 -9 -17 90 0
40 -9 -17 -90 0
14 -65 27 91 0
14 -65 27 -91 0
-5 -71 -59 92 0
-5 -71 -59 -92 0
11 -62 -35 93 0
11 -62 -35 -93 0
-44 53 -64 94 0
-44 53 -64 -94 0
-32 -40 3 95 0
-32 -40 3 -95 0
11 -7 -67 96 0
11 -7 -67 -96 0
47 42 48 97 0
47 42 48 -97 0
-19 -39 17 98 0
-19 -39 17 -98 0
17 10 -54 99 0
17 10 -54 -99 0
74 35 19 100 0
74 35 19 -100 0
-3 -18 -20 101 0
-3 -18 -20 -101 0
47 -26 -24 102 0
47 -26 -24 -102 0
-49 -75 -15 103 0
-49 -75 -15 -103 0
-67 -69 -66 104 0
-67 -69 -66 -104 0
-25 -72 28 105 0
-25 -72 28 -105 0
-55 -1 53 106 0
-55 -1 53 -106 0
56 -41 -59 107 0
56 -41 -59 -107 0
-56 34 40 108 0
-56 34 40 -108 0
-51 -15 11 109 0
-51 -15 11 -109 0
-34 -9 6 110 0
-34 -9 6 -110 0
-22 32 -3 111 0
-22 32 -3 -111 0
32 12 39 112 0
32 12 39 -112 0
55 -71 57 113 0
55 -71 57 -113 0
-36 41 19 114 0
-36 41 19 -114 0
-56 40 -13 115 0
-56 40 -13 -115 0
-64 -48 -20 116 0
-64 -48 -20 -116 0
64 4 62 117 0
64 4 62 -117 0
50 72 -73 118 0
50 72 -73 -118 0
-36 51 29 119 0
-36 51 29 -119 0
-58 -3 75 120 0
-58 -3 75 -120 0
59 -53 -73 121 0
59 -53 -73 -121 0
-54 -33 -48 122 0
-54 -33 -48 -122 0
-42 -35 62 123 0
-42 -35 62 -123 0
-28 27 -53 124 0
-28 27 -53 -124 0
17 -65 -2 125 0
17 -65 -2 -125 0
-40 43 38 126 0
-40 43 38 -126 0
-24 45 -54 127 0
-24 45 -54 -127 0
-30 65 70 128 0
-30 65 70 -128 0
8 9 4 129 0
8 9 4 -129 0
-3 10 -35 130 0
-3 10 -35 -130 0
-29 -44 -37 131 0
-29 -44 -37 -131 0
23 -25 -21 132 0
23 -25 -21 -132 0
41 44 -18 133 0
41 44 -18 -133 0
-57 -32 -58 134 0
-57 -32 -58 -134 0
-5 48 1 135 0
-5 48 1 -135 0
-39 -63 44 136 0
-39 -63 44 -136 0
-43 9 49 137 0
-43 9 49 -137 0
-51 61 71 138 0
-51 61 71 -138 0
43 -3 51 139 0
43 -3 51 -139 0
16 67 68 140 0
16 67 68 -140 0
-16 -70 -14 141 0
-16 -70 -14 -141 0
9 37 57 142 0
9 37 57 -142 0
-75 13 5 143 0
-75 13 5 -143 0
-36 35 1 144 0
-36 35 1 -144 0
1 -15 -13 145 0
1 -15 -13 -145 0
32 40 -53 146 0
32 40 -53 -146 0
25 70 60 147 0
25 70 60 -147 0
16 19 -25 148 0
16 19 -25 -148 0
-45 48 -18 149 0
-45 48 -18 -149 0
65 -34 54 150 0
65 -34 54 -150 0
42 6 64 151 0
42 6 64 -151 0
-71 -47 16 152 0
-71 -47 16 -152 0
68 -53 -17 153 0
68 -53 -17 -153 0
57 -37 -17 154 0
57 -37 -17 -154 0
16 28 -36 155 0
16 28 -36 -155 0
60 7 -48 156 0
60 7 -48 -156 0
-74 -75 -10 157 0
-74 -75 -10 -157 0
-46 -45 22 158 0
-46 -45 22 -158 0
63 -39 -48 159 0
63 -39 -48 -159 0
61 5 -70 160 0
61 5 -70 -160 0
-5 7 3 161 0
-5 7 3 -161 0
-46 -9 31 162 0
-46 -9 31 -162 0
-25 34 52 163 0
-25 34 52 -163 0
57 9 -72 164 0
57 9 -72 -164 0
-72 73 65 165 0
-72 73 65 -165 0
-62 -23 18 166 0
-62 -23 18 -166 0
-21 46 37 167 0
-21 46 37 -167 0
59 50 58 168 0
59 50 58 -168 0
-69 2 13 169 0
-69 2 13 -169 0
-51 28 -23 170 0
-51 28 -23 -170 0
-51 -4 -63 171 0
-51 -4 -63 -171 0
-22 -13 -33 172 0
-22 -13 -33 -172 0
-8 48 -33 173 0
-8 48 -33 -173 0
69 -2 55 174 0
69 -2 55 -174 0
-31 42 -38 175 0
-31 42 -38 -175 0
18 -57 -59 176 0
18 -57 -59 -176 0
69 -72 -64 177 0
69 -72 -64 -177 0
-9 -62 25 178 0
-9 -62 25 -178 0
-18 -46 34 179 0
-18 -46 34 -179 0
-7 -8 -66 180 0
-7 -8 -66 -180 0
24 4 52 181 0
24 4 52 -181 0
-59 3 23 182 0
-59 3 23 -182 0
-25 36 -64 183 0
-25 36 -64 -183 0
-7 19 -12 184 0
-7 19 -12 -184 0
-64 -23 -72 185 0
-64 -23 -72 -185 0
50 16 -61 186 0
50 16 -61 -186 0
-53 -6 73 187 0
-53 -6 73 -187 0
-2 -3 -61 188 0
-2 -3 -61 -188 0
-32 58 6 189 0
-32 58 6 -189 0
33 -11 44 190 0
33 -11 44 -190 0
-11 -39 -50 191 0
-11 -39 -50 -191 0
-67 -42 -3 192 0
-67 -42 -3 -192 0
-14 44 58 193 0
-14 44 58 -193 0
-62 66 -16 194 0
-62 66 -16 -194 0
-14 66 -49 195 0
-14 66 -49 -195 0
-17 31 -2 196 0
-17 31 -2 -196 0
-64 18 34 197 0
-64 18 34 -197 0
47 20 44 198 0
47 20 44 -198 0
62 -6 69 199 0
62 -6 69 -199 0
41 -13 18 200 0
41 -13 18 -200 0
-53 12 68 201 0
-53 12 68 -201 0
46 -67 -38 202 0
46 -67 -38 -202 0
-5 -29 64 203 0
-5 -29 64 -203 0
-51 -43 14 204 0
-51 -43 14 -204 0
71 11 25 205 0
71 11 25 -205 0
-51 -2 30 206 0
-51 -2 30 -206 0
63 26 24 207 0
63 26 24 -207 0
-68 34 35 208 0
-68 34 35 -208 0
65 57 59 209 0
65 57 59 -209 0
-16 21 -39 210 0
-16 21 -39 -210 0
59 -9 -64 211 0
59 -9 -64 -211 0
-47 -39 69 212 0
-47 -39 69 -212 0
2 56 -58 213 0
2 56 -58 -213 0
52 27 -46 214 0
52 27 -46 -214 0
63 45 -16 215 0
63 45 -16 -215 0
14 68 58 216 0
14 68 58 -216 0
-46 -53 -74 217 0
-46 -53 -74 -217 0
-63 49 42 218 0
-63 49 42 -218 0
34 61 -30 219 0
34 61 -30 -219 0
74 8 -29 220 0
74 8 -29 -220 0
-63 -48 31 221 0
-63 -48 31 -221 0
5 -20 -15 222 0
5 -20 -15 -222 0
64 47 -37 223 0
64 47 -37 -223 0
-34 -50 -32 224 0
-34 -50 -32 -224 0
48 -53 60 225 0
48 -53 60 -225 0
-39 55 -66 226 0
-39 55 -66 -226 0
-32 30 -61 227 0
-32 30 -61 -227 0
-34 -22 16 228 0
-34 -22 16 -228 0
-40 -11 -8 229 0
-40 -11 -8 -229 0
48 -46 38 230 0
48 -46 38 -230 0
-50 10 8 231 0
-50 10 8 -231 0
-5 35 62 232 0
-5 35 62 -232 0
-35 39 41 233 0
-35 39 41 -233 0
8 -73 27 234 0
8 -73 27 -234 0
-1 -41 -71 235 0
-1 -41 -71 -235 0
-67 46 -51 236 0
-67 46 -51 -236 0
33 16 13 237 0
33 16 13 -237 0
39 40 56 238 0
39 40 56 -238 0
-21 23 11 239 0
-21 23 11 -239 0
-72 38 -45 240 0
-72 38 -45 -240 0
34 -69 13 241 0
34 -69 13 -241 0
63 -26 -39 242 0
63 -26 -39 -242 0
-19 8 9 243 0
-19 8 9 -243 0
13 32 46 244 0
13 32 46 -244 0
-28 -1 -46 245 0
-28 -1 -46 -245 0
40 27 -52 246 0
40 27 -52 -246 0
24 58 38 247 0
24 58 38 -247 0
-42 -35 14 248 0
-42 -35 14 -248 0
54 3 8 249 0
54 3 8 -249 0
31 -7 62 250 0
31 -7 62 -250 0
-68 -25 73 251 0
-68 -25 73 -251 0
43 9 -14 252 0
43 9 -14 -252 0
11 -74 -1 253 0
11 -74 -1 -253 0
-62 19 -49 254 0
-62 19 -49 -254 0
-10 53 -62 255 0
-10 53 -62 -255 0
30 -73 -10 256 0
30 -73 -10 -256 0
-58 10 4 257 0
-58 10 4 -257 0
37 -26 -34 258 0
37 -26 -34 -258 0
-9 37 -18 259 0
-9 37 -18 -259 0
37 42 16 260 0
37 42 16 -260 0
8 67 -20 261 0
8 67 -20 -261 0
13 -2 71 262 0
13 -2 71 -262 0
52 -35 37 263 0
52 -35 37 -263 0
9 -5 49 264 0
9 -5 49 -264 0
65 -23 46 265 0
65 -23 46 -265 0
-27 -54 75 266 0
-27 -54 75 -266 0
32 10 20 267 0
32 10 20 -267 0
39 2 -52 268 0
39 2 -52 -268 0
-12 -20 -52 269 0
-12 -20 -52 -269 0
66 -36 61 270 0
66 -36 61 -270 0
-45 -68 10 271 0
-45 -68 10 -271 0
63 70 -15 272 0
63 70 -15 -272 0
25 -62 -42 273 0
25 -62 -42 -273 0
50 -74 -73 274 0
50 -74 -73 -274 0
-64 50 -4 275 0
-64 50 -4 -275 0
5 56 -37 276 0
5 56 -37 -276 0
19 13 70 277 0
19 13 70 -277 0
-74 -45 -4 278 0
-74 -45 -4 -278 0
19 -21 -64 279 0
19 -21 -64 -279 0
-60 35 23 280 0
-60 35 23 -280 0
-33 13 -14 281 0
-33 13 -14 -281 0
-69 44 -50 282 0
-69 44 -50 -282 0
6 -1 40 283 0
6 -1 40 -283 0
-75 -59 31 284 0
-75 -59 31 -284 0
-37 -60 59 285 0
-37 -60 59 -285 0
-6 58 -30 286 0
-6 58 -30 -286 0
-69 -52 42 287 0
-69 -52 42 -287 0
-62 54 1 288 0
-62 54 1 -288 0
-70 4 -42 289 0
-70 4 -42 -289 0
20 63 -5 290 0
20 63 -5 -290 0
-19 -42 -33 291 0
-19 -42 -33 -291 0
41 36 -17 292 0
41 36 -17 -292 0
-44 -4 -50 293 0
-44 -4 -50 -293 0
54 -69 -72 294 0
54 -69 -72 -294 0
-63 72 -68 295 0
-63 72 -68 -295 0
-18 66 -1 296 0
-18 66 -1 -296 0
-32 68 -57 297 0
-32 68 -57 -297 0
-7 13 26 298 0
-7 13 26 -298 0
-29 -5 16 299 0
-29 -5 16 -299 0
36 -53 4 300 0
36 -53 4 -300 0
-72 -69 -18 301 0
-72 -69 -18 -301 0
37 -16 -42 302 0
37 -16 -42 -302 0
70 61 -63 303 0
70 61 -63 -303 0
-41 63 -4 304 0
-41 63 -4 -304 0
72 37 1 305 0
72 37 1 -305 0
22 -7 45 306 0
22 -7 45 -306 0
-55 -7 62 307 0
-55 -7 62 -307 0
68 46 25 308 0
68 46 25 -308 0
53 69 27 309 0
53 69 27 -309 0
31 -26 -48 310 0
31 -26 -48 -310 0
58 72 -67 311 0
58 72 -67 -311 0
47 -69 -64 312 0
47 -69 -64 -312 0
70 -59 20 313 0
70 -59 20 -313 0
-44 49 -19 314 0
-44 49 -19 -314 0
-6 -39 -73 315 0
-6 -39 -73 -315 0
39 52 -45 316 0
39 52 -45 -316 0
12 50 -53 317 0
12 50 -53 -317 0
-51 3 27 318 0
-51 3 27 -318 0
-21 -65 72 319 0
-21 -65 72 -319 0
12 -65 43 320 0
12 -65 43 -320 0
57 7 13 321 0
57 7 13 -321 0
-10 -48 -67 322 0
-10 -48 -67 -322 0
-31 24 1 323 0
-31 24 1 -323 0
5 40 -12 324 0
5 40 -12 -324 0
-5 15 61 325 0
-5 15 61 -325 0
9 4 -35 326 0
9 4 -35 -326 0
38 40 44 327 0
38 40 44 -327 0
28 -57 -42 328 0
28 -57 -42 -328 0
-51 -43 25 329 0
-51 -43 25 -329 0
-59 49 -42 330 0
-59 49 -42 -330 0
73 -30 68 331 0
73 -30 68 -331 0
-29 -14 63 332 0
-29 -14 63 -332 0
15 71 -56 333 0
15 71 -56 -333 0
-1 65 -63 334 0
-1 65 -63 -334 0
18 -59 15 335 0
18 -59 15 -335 0
-67 -41 -45 336 0
-67 -41 -45 -336 0
57 -50 70 337 0
57 -50 70 -337 0
-20 59 64 338 0
-20 59 64 -338 0
45 -18 19 339 0
45 -18 19 -339 0
3 -4 -19 340 0
3 -4 -19 -340 0
-30 -33 31 341 0
-30 -33 31 -341 0
-73 57 -69 342 0
-73 57 -69 -342 0
-1 -25 -40 343 0
-1 -25 -40 -343 0
19 -39 -75 344 0
19 -39 -75 -344 0
73 65 17 345 0
73 65 17 -345 0
-45 -63 -38 346 0
-45 -63 -38 -346 0
41 -44 50 347 0
41 -44 50 -347 0
33 -74 -72 348 0
33 -74 -72 -348 0
40 32 -53 349 0
40 32 -53 -349 0
75 -25 -27 350 0
75 -25 -27 -350 0
-23 -9 45 351 0
-23 -9 45 -351 0
43 -19 -2 352 0
43 -19 -2 -352 0
-49 9 -50 353 0
-49 9 -50 -353 0
24 -70 74 354 0
24 -70 74 -354 0
-39 71 50 355 0
-39 71 50 -355 0
48 35 -22 356 0
48 35 -22 -356 0
-50 62 -18 357 0
-50 62 -18 -357 0
27 53 3 358 0
27 53 3 -358 0
-44 -46 28 359 0
-44 -46 28 -359 0
-68 -10 20 360 0
-68 -10 20 -360 0
56 -48 66 361 0
56 -48 66 -361 0
2 39 72 362 0
2 39 72 -362 0
13 -42 53 363 0
13 -42 53 -363 0
-48 -11 46 364 0
-48 -11 46 -364 0
-24 46 28 365 0
-24 46 28 -365 0
-75 -68 -65 366 0
-75 -68 -65 -366 0
71 -27 -70 367 0
71 -27 -70 -367 0
-29 -8 -48 368 0
-29 -8 -48 -368 0
16 -61 19 369 0
16 -61 19 -369 0
39 9 63 370 0
39 9 63 -370 0
-6 13 15 371 0
-6 13 15 -371 0
-69 3 -30 372 0
-69 3 -30 -372 0
59 47 -4 373 0
59 47 -4 -373 0
4 -31 40 374 0
4 -31 40 -374 0
-58 10 11 375 0
-58 10 11 -375 0
-61 23 -44 376 0
-61 23 -44 -376 0
2 -11 -53 377 0
2 -11 -53 -377 0
27 58 -42 378 0
27 58 -42 -378 0
-9 16 -12 379 0
-9 16 -12 -379 0
-51 -20 67 380 0
-51 -20 67 -380 0
-17 -51 -31 381 0
-17 -51 -31 -381 0
35 52 -58 382 0
35 52 -58 -382 0
-8 -34 -39 383 0
-8 -34 -39 -383 0
-32 -73 68 384 0
-32 -73 68 -384 0
26 21 -50 385 0
26 21 -50 -385 0
-25 23 -16 386 0
-25 23 -16 -386 0
-28 -42 -10 387 0
-28 -42 -10 -387 0
62 -9 30 388 0
62 -9 30 -388 0
68 -71 74 389 0
68 -71 74 -389 0
61 -62 -3 390 0
61 -62 -3 -390 0
27 16 -57 391 0
27 16 -57 -391 0
-34 -64 -15 392 0
-34 -64 -15 -392 0
-35 -29 -72 393 0
-35 -29 -72 -393 0
-71 57 65 394 0
-71 57 65 -394 0
21 2 18 395 0
21 2 18 -395 0
-65 30 -27 396 0
-65 30 -27 -396 0
19 -71 38 397 0
19 -71 38 -397 0
22 -75 33 398 0
22 -75 33 -398 0
13 -59 4 399 0
13 -59 4 -399 0
-33 74 22 400 0
-33 74 22 -400 0
401 402 403 404 0
401 402 403 -404 0
401 402 -403 404 0
401 402 -403 -404 0
401 -402 403 404 0
401 -402 403 -404 0
401 -402 -403 404 0
401 -402 -403 -404 0
-401 402 403 404 0
-401 402 403 -404 0
-401 402 -403 404 0
-401 402 -403 -404 0
-401 -402 403 404 0
-401 -402 403 -404 0
-401 -402 -403 404 0
-401 -402 -403 -404 0
405 406 407 408 0
405 406 407 -408 0
405 406 -407 408 0
405 406 -407 -408 0
405 -406 407 408 0
405 -406 407 -408 0
405 -406 -407 408 0
405 -406 -407 -408 0
-405 406 407 408 0
-405 406 407 -408 0
-405 406 -407 408 0
-405 406 -407 -408 0
-405 -406 407 408 0
-405 -406 407 -408 0
-405 -406 -407 408 0
-405 -406 -407 -408 0
409 410 411 412 0
409 410 411 -412 0
409 410 -411 412 0
409 410 -411 -412 0
409 -410 411 412 0
409 -410 411 -412 0
409 -410 -411 412 0
409 -410 -411 -412 0
-409 410 411 412 0
-409 410 411 -412 0
-409 410 -411 412 0
-409 410 -411 -412 0
-409 -410 411 412 0
-409 -410 411 -412 0
-409 -410 -411 412 0
-409 -410 -411 -412 0
